Route #1: 1 44 6 24 37 26
Route #2: 27 34 19 30 40 11 7 28 23
Route #3: 13 17 18 43 29
Route #4: 32 20 5 21 33 41 8 10 3
Route #5: 9 22 16 4 42 36 39 12
Route #6: 15 25 2 38 31 35 14
Cost 948
Time 0.15327
